 vasp.5.4.4.18Apr17-6-g9f103f2a35 (build May 09 2017 17:24:04) gamma-only

 executed on             LinuxIFC date 2021.12.30  10:48:31

 INCAR:
 POTCAR:    PAW_PBE Sb 06Sep2000
 POTCAR:    PAW_PBE Cs_sv 08Apr2002
 POTCAR:    PAW_PBE Zr_sv 04Jan2005
 POTCAR:    PAW_PBE Cl 06Sep2000

 POTCAR:    PAW_PBE Sb 06Sep2000
   VRHFIN =Sb: s2p3

   TITEL  = PAW_PBE Sb 06Sep2000
   POMASS =  121.750; ZVAL   =    5.000    mass and valenz
   ENMAX  =  172.069; ENMIN  =  129.052 eV

 POTCAR:    PAW_PBE Cs_sv 08Apr2002
   VRHFIN =Cs: 5s5p6s

   TITEL  = PAW_PBE Cs_sv 08Apr2002
   POMASS =  132.900; ZVAL   =    9.000    mass and valenz
   ENMAX  =  220.318; ENMIN  =  165.238 eV

 POTCAR:    PAW_PBE Zr_sv 04Jan2005
   VRHFIN =Zr: 4s4p5s4d

   TITEL  = PAW_PBE Zr_sv 04Jan2005
   POMASS =   91.224; ZVAL   =   12.000    mass and valenz
   ENMAX  =  229.898; ENMIN  =  172.424 eV

 POTCAR:    PAW_PBE Cl 06Sep2000
   VRHFIN =Cl: s2p5

   TITEL  = PAW_PBE Cl 06Sep2000
   POMASS =   35.453; ZVAL   =    7.000    mass and valenz
   ENMAX  =  262.472; ENMIN  =  196.854 eV

 Optimization of the real space projectors (new method)

 maximal supplied QI-value         = 16.25
 optimisation between [QCUT,QGAM] = [ 10.24, 20.48] = [ 29.35,117.42] Ry
 Optimized for a Real-space Cutoff    1.38 Angstroem

   l    n(q)    QCUT    max X(q) W(low)/X(q) W(high)/X(q)  e(spline)
   0      8    10.239    19.000    0.74E-04    0.15E-03    0.61E-07
   0      8    10.239     9.057    0.91E-04    0.19E-03    0.74E-07
   1      8    10.239   125.345    0.50E-03    0.38E-03    0.74E-07
   1      8    10.239    79.963    0.49E-03    0.37E-03    0.73E-07
   2      7    10.239     6.963    0.74E-04    0.11E-03    0.40E-07
 Optimization of the real space projectors (new method)

[...]

   l    n(q)    QCUT    max X(q) W(low)/X(q) W(high)/X(q)  e(spline)
   0     10    10.129    12.107    0.22E-04    0.16E-04    0.41E-07
   0     10    10.129     9.948    0.28E-04    0.32E-04    0.88E-07
   1      9    10.129     3.563    0.30E-04    0.37E-04    0.43E-07
   1      9    10.129     4.524    0.45E-03    0.38E-03    0.34E-06
   2      9    10.129    87.261    0.10E-03    0.10E-03    0.15E-06
   2      9    10.129    70.950    0.99E-04    0.10E-03    0.15E-06
 Optimization of the real space projectors (new method)

 maximal supplied QI-value         = 19.84
 optimisation between [QCUT,QGAM] = [ 10.12, 20.44] = [ 28.68,116.96] Ry
 Optimized for a Real-space Cutoff    1.23 Angstroem

   l    n(q)    QCUT    max X(q) W(low)/X(q) W(high)/X(q)  e(spline)
   0      7    10.119   168.010    0.54E-04    0.25E-03    0.48E-07
   0      7    10.119   164.674    0.53E-04    0.25E-03    0.47E-07
   1      7    10.119    69.222    0.45E-03    0.63E-03    0.13E-06
   1      7    10.119    56.786    0.45E-03    0.62E-03    0.13E-06
  PAW_PBE Sb 06Sep2000                  :
  PAW_PBE Cs_sv 08Apr2002               :
  PAW_PBE Zr_sv 04Jan2005               :
  PAW_PBE Cl 06Sep2000                  :

 POSCAR: Cs8 Zr4 Cl24
  positions in direct lattice
  velocities in cartesian coordinates
 exchange correlation table for  LEXCH =        8
   RHO(1)=    0.500       N(1)  =     2000
   RHO(2)=  100.500       N(2)  =     4000

 ion  position               nearest neighbor table
   1  0.483  0.500  0.500-  15 2.46  16 2.63  29 2.63  31 2.63  32 2.63
   2  0.743  0.252  0.252-
   3  0.743  0.748  0.252-
   4  0.743  0.748  0.748-
   5  0.743  0.252  0.748-
   6  0.255  0.242  0.758-
   7  0.255  0.758  0.758-
   8  0.255  0.758  0.242-
   9  0.255  0.242  0.242-
  10  0.506  0.000  0.000-  21 2.47  22 2.48  26 2.48  25 2.48  35 2.48  18 2.51
  11  0.004  0.500  0.000-  27 2.48  24 2.48  19 2.48  20 2.48  17 2.50  28 2.50
  12  0.004  0.000  0.500-  33 2.48  30 2.48  23 2.48  34 2.48  13 2.50  14 2.50
  13  0.006  0.231  0.500-  12 2.50
  14  0.006  0.769  0.500-  12 2.50
  15  0.710  0.500  0.500-   1 2.46
  16  0.490  0.500  0.257-   1 2.63
  17  0.006  0.500  0.231-  11 2.50
  18  0.274  0.000  0.000-  10 2.51
  19  0.003  0.730  0.000-  11 2.48
  20  0.003  0.270  0.000-  11 2.48
  21  0.735  0.000  0.000-  10 2.47
  22  0.504  0.000  0.770-  10 2.48
  23  0.003  0.000  0.730-  12 2.48
  24  0.774  0.500  0.000-  11 2.48
  25  0.504  0.230  0.000-  10 2.48
  26  0.504  0.770  0.000-  10 2.48
  27  0.233  0.500  0.000-  11 2.48
  28  0.006  0.500  0.769-  11 2.50
  29  0.490  0.500  0.743-   1 2.63
  30  0.774  0.000  0.500-  12 2.48
  31  0.490  0.743  0.500-   1 2.63
  32  0.490  0.257  0.500-   1 2.63
  33  0.233  0.000  0.500-  12 2.48
  34  0.003  0.000  0.270-  12 2.48
  35  0.504  0.000  0.230-  10 2.48

  LATTYP: Found a simple cubic cell.
 ALAT       =    10.7995840000

  Lattice vectors:

 A1 = (  10.7995840000,   0.0000000000,   0.0000000000)
 A2 = (   0.0000000000,  10.7995840000,   0.0000000000)
 A3 = (   0.0000000000,   0.0000000000,  10.7995840000)

Analysis of symmetry for initial positions (statically):
 Subroutine PRICEL returns:
 Original cell was already a primitive cell.

 Routine SETGRP: Setting up the symmetry group for a
 simple cubic supercell.

 Subroutine GETGRP returns: Found  8 space group operations
 (whereof  8 operations were pure point group operations)
 out of a pool of 48 trial point group operations.

The static configuration has the point symmetry C_4v.

Analysis of symmetry for dynamics (positions and initial velocities):
 Subroutine PRICEL returns:
 Original cell was already a primitive cell.

[...]

The dynamic configuration has the point symmetry C_4v.

Analysis of structural, dynamic, and magnetic symmetry:
 Subroutine PRICEL returns:
 Original cell was already a primitive cell.

[...]

The magnetic configuration has the point symmetry C_4v.

 Subroutine INISYM returns: Found  8 space group operations
 (whereof  8 operations are pure point group operations),
 and found     1 'primitive' translations

 KPOINTS: K-Mesh Generated with KP-Resolved Value

Automatic generation of k-mesh.
Space group operators:
 irot       det(A)        alpha          n_x          n_y          n_z        tau_x        tau_y        tau_z
    1     1.000000     0.000000     1.000000     0.000000     0.000000     0.000000     0.000000     0.000000
    2    -1.000000   180.000000     0.000000     0.707107     0.707107     0.000000     0.000000     0.000000
    3    -1.000000   180.000000     0.000000     0.000000     1.000000     0.000000     0.000000     0.000000
    4     1.000000    90.000000    -1.000000     0.000000     0.000000     0.000000     0.000000     0.000000
    5     1.000000   180.000000     1.000000     0.000000     0.000000     0.000000     0.000000     0.000000
    6     1.000000    90.000000     1.000000     0.000000     0.000000     0.000000     0.000000     0.000000
    7    -1.000000   180.000000     0.000000     1.000000     0.000000     0.000000     0.000000     0.000000
    8    -1.000000   180.000000     0.000000    -0.707107     0.707107     0.000000     0.000000     0.000000

 Subroutine IBZKPT returns following result:

 Found      1 irreducible k-points:

 Following reciprocal coordinates:
            Coordinates               Weight
  0.000000  0.000000  0.000000      1.000000

 Following cartesian coordinates:
            Coordinates               Weight
  0.000000  0.000000  0.000000      1.000000

 Subroutine IBZKPT_HF returns following result:

 Found      1 k-points in 1st BZ
 the following      1 k-points will be used (e.g. in the exchange kernel)
 Following reciprocal coordinates:   # in IRBZ
  0.000000  0.000000  0.000000    1.00000000   1 t-inv F

 SYSTEM =  unknown system
 POSCAR =  Cs8 Zr4 Cl24

 Startparameter for this run:
   NWRITE =      2    write-flag & timer
   PREC   = normal    normal or accurate (medium, high low for compatibility)
   ISTART =      1    job   : 0-new  1-cont  2-samecut
   ICHARG =      0    charge: 1-file 2-atom 10-const
   ISPIN  =      2    spin polarized calculation?
   LNONCOLLINEAR =      F non collinear calculations
   LSORBIT =      F    spin-orbit coupling
   INIWAV =      1    electr: 0-lowe 1-rand  2-diag
   LASPH  =      F    aspherical Exc in radial PAW
   METAGGA=      F    non-selfconsistent MetaGGA calc.

 Electronic Relaxation 1
   ENCUT  =  400.0 eV  29.40 Ry    5.42 a.u.  17.61 17.61 17.61*2*pi/ulx,y,z
   ENINI  =  400.0     initial cutoff
   ENAUG  =  461.3 eV  augmentation charge cutoff
   NELM   =     30;   NELMIN=  5; NELMDL=  0     # of ELM steps
   EDIFF  = 0.1E-03   stopping-criterion for ELM
   LREAL  =      T    real-space projection
   NLSPLINE    = F    spline interpolate recip. space projectors
   LCOMPAT=      F    compatible to vasp.4.4
   GGA_COMPAT  = T    GGA compatible to vasp.4.4-vasp.4.6
   LMAXPAW     = -100 max onsite density
   LMAXMIX     =    2 max onsite mixed and CHGCAR
   VOSKOWN=      0    Vosko Wilk Nusair interpolation
   ROPT   =   -0.00050  -0.00050  -0.00050  -0.00050
 Ionic relaxation
   EDIFFG = -.1E-01   stopping-criterion for IOM
   NSW    =    457    number of steps for IOM
   NBLOCK =      1;   KBLOCK =    457    inner block; outer block
   IBRION =      6    ionic relax: 0-MD 1-quasi-New 2-CG
   NFREE  =      2    steps in history (QN), initial steepest desc. (CG)
   ISIF   =      2    stress and relaxation
   IWAVPR =     11    prediction:  0-non 1-charg 2-wave 3-comb
   ISYM   =      2    0-nonsym 1-usesym 2-fastsym
   LCORR  =      T    Harris-Foulkes like correction to forces

   POTIM  = 0.0150    time-step for ionic-motion
   TEIN   =    0.0    initial temperature
   TEBEG  =    0.0;   TEEND  =   0.0 temperature during run
   SMASS  =  -3.00    Nose mass-parameter (am)
   estimated Nose-frequenzy (Omega)   =  0.10E-29 period in steps =****** mass=  -0.267E-26a.u.
   SCALEE = 1.0000    scale energy and forces
   NPACO  =    256;   APACO  = 16.0  distance and # of slots for P.C.
   PSTRESS=    0.0 pullay stress

  Mass of Ions in am
   POMASS = 121.75132.90 91.22 35.45
  Ionic Valenz
   ZVAL   =   5.00  9.00 12.00  7.00
  Atomic Wigner-Seitz radii
  virtual crystal weights
   VCA    =   1.00  1.00  1.00  1.00
   NELECT =     274.0000    total number of electrons
   NUPDOWN=      -1.0000    fix difference up-down

 DOS related values:
   EMIN   =  10.00;   EMAX   =-10.00  energy-range for DOS
   EFERMI =   0.00
   ISMEAR =     0;   SIGMA  =   0.05  broadening in eV -4-tet -1-fermi 0-gaus

 Electronic relaxation 2 (details)
   IALGO  =     38    algorithm
   LDIAG  =      T    sub-space diagonalisation (order eigenvalues)
   LSUBROT=      F    optimize rotation matrix (better conditioning)
   TURBO    =      0    0=normal 1=particle mesh
   IRESTART =      0    0=no restart 2=restart with 2 vectors
   NREBOOT  =      0    no. of reboots
   NMIN     =      0    reboot dimension
   EREF     =   0.00    reference energy to select bands
   IMIX   =      4    mixing-type and parameters
     AMIX     =   0.40;   BMIX     =  1.00
     AMIX_MAG =   1.60;   BMIX_MAG =  1.00
     AMIN     =   0.10
     WC   =   100.;   INIMIX=   1;  MIXPRE=   1;  MAXMIX= -45

 Intra band minimization:
   WEIMIN = 0.0010     energy-eigenvalue tresh-hold
   EBREAK =  0.13E-06  absolut break condition
   DEPER  =   0.30     relativ break condition

[...]
 d Force = 0.4023474E-13[ 0.462E-02,-0.462E-02]  d Ewald  = 0.7275958E-11-0.728E-11

 Finite differences progress:
  Degree of freedom:  35/ 35
  Displacement:        2/  2
  Total:              70/ 70

 INTERNAL STRAIN TENSORS FROM DISPLACED ATOMS

 INTERNAL STRAIN TENSOR FOR ION    1 for displacements in x,y,z  (eV/Angst):
          X           Y           Z          XY          YZ          ZX
  x    19.21192     6.43449     6.43449     0.00000     0.00000     0.00000
  y     0.00000     0.00000     0.00000     3.40452     0.00000     0.00000
  z     0.00000     0.00000     0.00000     0.00000     0.00000     3.40452

[...]

 INTERNAL STRAIN TENSOR FOR ION   35 for displacements in x,y,z  (eV/Angst):
          X           Y           Z          XY          YZ          ZX
  x    -0.02473     0.09434     0.40505     0.00000     0.00000    -2.72999
  y     0.00000     0.00000     0.00000     0.01368    -2.68835    -0.00000
  z    -3.67337    -3.25518   -21.58558     0.00000     0.00000     0.00824

 Eigenvectors and eigenvalues of the dynamical matrix

   1 f  =    9.259574 THz    58.179620 2PiTHz  308.866134 cm-1    38.294534 meV
             X         Y         Z           dx          dy          dz
      5.217506  5.399792  5.399792    -0.021684    0.000000    0.000000
      8.020538  2.723665  2.723665    -0.000284    0.000636    0.000636
      8.020538  8.075919  2.723665    -0.000284   -0.000636    0.000636
      8.020538  8.075919  8.075919    -0.000284   -0.000636   -0.000636
      8.020538  2.723665  8.075919    -0.000284    0.000636   -0.000636
      2.756120  2.616945  8.182639     0.000628   -0.002528    0.002528
      2.756120  8.182639  8.182639     0.000628    0.002528    0.002528
      2.756120  8.182639  2.616945     0.000628    0.002528   -0.002528
      2.756120  2.616945  2.616945     0.000628   -0.002528   -0.002528
      5.465704  0.000000  0.000000    -0.102725   -0.000000   -0.000000
      0.041012  5.399792  0.000000     0.000259    0.000000   -0.000000
      0.041012  0.000000  5.399792     0.000259   -0.000000    0.000000
      0.060456  2.497782  5.399792     0.000304    0.093177   -0.000000
      0.060456  8.301802  5.399792     0.000304   -0.093177   -0.000000
      7.672595  5.399792  5.399792     0.034460    0.000000    0.000000
      5.290259  5.399792  2.774304     0.002099   -0.000000   -0.019921
      0.060456  5.399792  2.497782     0.000304    0.000000    0.093177
      2.958943  0.000000  0.000000    -0.263198   -0.000000    0.000000
      0.033122  7.884748  0.000000    -0.002165    0.121523    0.000000
      0.033122  2.914836  0.000000    -0.002165   -0.121523    0.000000
      7.936790  0.000000  0.000000     0.444682   -0.000000    0.000000
      5.439548  0.000000  8.317869    -0.007293    0.000000   -0.375090
      0.033122  0.000000  7.884748    -0.002165   -0.000000    0.121523
      8.356030  5.399792  0.000000    -0.125545   -0.000000    0.000000
      5.439548  2.481715  0.000000    -0.007293    0.375090   -0.000000
      5.439548  8.317869  0.000000    -0.007293   -0.375090    0.000000
      2.517244  5.399792  0.000000     0.124073   -0.000000    0.000000
      0.060456  5.399792  8.301802     0.000304    0.000000   -0.093177
      5.290259  5.399792  8.025280     0.002099   -0.000000    0.019921
      8.356030  0.000000  5.399792    -0.125545    0.000000   -0.000000
      5.290259  8.025280  5.399792     0.002099    0.019921   -0.000000
      5.290259  2.774304  5.399792     0.002099   -0.019921   -0.000000
      2.517244  0.000000  5.399792     0.124073   -0.000000    0.000000
      0.033122  0.000000  2.914836    -0.002165    0.000000   -0.121523
      5.439548  0.000000  2.481715    -0.007293   -0.000000    0.375090

[...]

 102 f  =    0.320752 THz     2.015341 2PiTHz   10.699119 cm-1     1.326522 meV
             X         Y         Z           dx          dy          dz
      5.217506  5.399792  5.399792    -0.000000    0.000000    0.000000
      8.020538  2.723665  2.723665     0.000000   -0.002153    0.002153
      8.020538  8.075919  2.723665    -0.000000   -0.002153   -0.002153
      8.020538  8.075919  8.075919     0.000000    0.002153   -0.002153
      8.020538  2.723665  8.075919    -0.000000    0.002153    0.002153
      2.756120  2.616945  8.182639     0.000000   -0.062163   -0.062163
      2.756120  8.182639  8.182639     0.000000   -0.062163    0.062163
      2.756120  8.182639  2.616945    -0.000000    0.062163    0.062163
      2.756120  2.616945  2.616945     0.000000    0.062163   -0.062163
      5.465704  0.000000  0.000000    -0.000000    0.000000    0.000000
      0.041012  5.399792  0.000000     0.000000    0.000000    0.000000
      0.041012  0.000000  5.399792    -0.000000    0.000000   -0.000000
      0.060456  2.497782  5.399792    -0.000000    0.000000    0.341202
      0.060456  8.301802  5.399792     0.000000    0.000000   -0.341202
      7.672595  5.399792  5.399792    -0.000000    0.000000    0.000000
      5.290259  5.399792  2.774304    -0.000000    0.082512    0.000000
      0.060456  5.399792  2.497782     0.000000   -0.341202    0.000000
      2.958943  0.000000  0.000000     0.000000    0.000000    0.000000
      0.033122  7.884748  0.000000    -0.000000    0.000000    0.344575
      0.033122  2.914836  0.000000     0.000000    0.000000   -0.344575
      7.936790  0.000000  0.000000    -0.000000    0.000000   -0.000000
      5.439548  0.000000  8.317869    -0.000000    0.017413    0.000000
      0.033122  0.000000  7.884748     0.000000   -0.344575   -0.000000
      8.356030  5.399792  0.000000     0.000000   -0.000000    0.000000
      5.439548  2.481715  0.000000     0.000000    0.000000    0.017413
      5.439548  8.317869  0.000000    -0.000000    0.000000   -0.017413
      2.517244  5.399792  0.000000     0.000000    0.000000    0.000000
      0.060456  5.399792  8.301802    -0.000000    0.341202    0.000000
      5.290259  5.399792  8.025280     0.000000   -0.082512    0.000000
      8.356030  0.000000  5.399792    -0.000000    0.000000    0.000000
      5.290259  8.025280  5.399792    -0.000000    0.000000    0.082512
      5.290259  2.774304  5.399792     0.000000    0.000000   -0.082512
      2.517244  0.000000  5.399792    -0.000000    0.000000   -0.000000
      0.033122  0.000000  2.914836    -0.000000    0.344575   -0.000000
      5.439548  0.000000  2.481715     0.000000   -0.017413    0.000000

 103 f/i=    0.219353 THz     1.378238 2PiTHz    7.316840 cm-1     0.907173 meV
             X         Y         Z           dx          dy          dz
      5.217506  5.399792  5.399792     0.000000   -0.002176   -0.193666
      8.020538  2.723665  2.723665    -0.033885    0.005935   -0.234661
      8.020538  8.075919  2.723665    -0.033131   -0.011211   -0.234854
      8.020538  8.075919  8.075919     0.033885    0.005935   -0.234661
      8.020538  2.723665  8.075919     0.033131   -0.011211   -0.234854
      2.756120  2.616945  8.182639    -0.029874    0.005644   -0.273386
      2.756120  8.182639  8.182639    -0.030553   -0.011791   -0.273582
      2.756120  8.182639  2.616945     0.029874    0.005644   -0.273386
      2.756120  2.616945  2.616945     0.030553   -0.011791   -0.273582
      5.465704  0.000000  0.000000     0.000000   -0.002037   -0.181277
      0.041012  5.399792  0.000000     0.000000   -0.001993   -0.207950
      0.041012  0.000000  5.399792     0.000000   -0.002337   -0.177372
      0.060456  2.497782  5.399792    -0.000137   -0.001496   -0.104229
      0.060456  8.301802  5.399792     0.000137   -0.001496   -0.104229
      7.672595  5.399792  5.399792     0.000000   -0.000662   -0.058945
      5.290259  5.399792  2.774304     0.068864   -0.001123   -0.117039
      0.060456  5.399792  2.497782    -0.012230   -0.001171   -0.133090
      2.958943  0.000000  0.000000     0.000000   -0.001627   -0.144812
      0.033122  7.884748  0.000000    -0.000529   -0.001216   -0.138224
      0.033122  2.914836  0.000000     0.000529   -0.001216   -0.138224
      7.936790  0.000000  0.000000     0.000000   -0.000933   -0.083022
      5.439548  0.000000  8.317869     0.026679   -0.001183   -0.109985
      0.033122  0.000000  7.884748    -0.047081   -0.001553   -0.108187
      8.356030  5.399792  0.000000     0.000000   -0.001797   -0.154991
      5.439548  2.481715  0.000000    -0.000300   -0.001236   -0.105279
      5.439548  8.317869  0.000000     0.000300   -0.001236   -0.105279
      2.517244  5.399792  0.000000     0.000000   -0.000702   -0.116023
      0.060456  5.399792  8.301802     0.012230   -0.001171   -0.133090
      5.290259  5.399792  8.025280    -0.068864   -0.001123   -0.117039
      8.356030  0.000000  5.399792     0.000000   -0.001742   -0.159903
      5.290259  8.025280  5.399792    -0.000774   -0.001315   -0.099949
      5.290259  2.774304  5.399792     0.000774   -0.001315   -0.099949
      2.517244  0.000000  5.399792     0.000000   -0.001304   -0.062473
      0.033122  0.000000  2.914836     0.047081   -0.001553   -0.108187
      5.439548  0.000000  2.481715    -0.026679   -0.001183   -0.109985

[...]

 105 f/i=    0.285761 THz     1.795487 2PiTHz    9.531948 cm-1     1.181811 meV
             X         Y         Z           dx          dy          dz
      5.217506  5.399792  5.399792     0.199299    0.000000    0.000000
      8.020538  2.723665  2.723665     0.266108    0.020417    0.020417
      8.020538  8.075919  2.723665     0.266108   -0.020417    0.020417
      8.020538  8.075919  8.075919     0.266108   -0.020417   -0.020417
      8.020538  2.723665  8.075919     0.266108    0.020417   -0.020417
      2.756120  2.616945  8.182639     0.295406   -0.013050    0.013050
      2.756120  8.182639  8.182639     0.295406    0.013050    0.013050
      2.756120  8.182639  2.616945     0.295406    0.013050   -0.013050
      2.756120  2.616945  2.616945     0.295406   -0.013050   -0.013050
      5.465704  0.000000  0.000000     0.163565    0.000000    0.000000
      0.041012  5.399792  0.000000     0.157101    0.000000    0.000000
      0.041012  0.000000  5.399792     0.157101    0.000000    0.000000
      0.060456  2.497782  5.399792     0.085677   -0.000453    0.000000
      0.060456  8.301802  5.399792     0.085677    0.000453    0.000000
      7.672595  5.399792  5.399792     0.111091    0.000000    0.000000
      5.290259  5.399792  2.774304     0.123257    0.000000    0.000128
      0.060456  5.399792  2.497782     0.085677    0.000000   -0.000453
      2.958943  0.000000  0.000000     0.101179    0.000000    0.000000
      0.033122  7.884748  0.000000     0.108134    0.000019    0.000000
      0.033122  2.914836  0.000000     0.108134   -0.000019    0.000000
      7.936790  0.000000  0.000000     0.099839    0.000000    0.000000
      5.439548  0.000000  8.317869     0.097838    0.000000   -0.000695
      0.033122  0.000000  7.884748     0.108134    0.000000    0.000019
      8.356030  5.399792  0.000000     0.097831    0.000000    0.000000
      5.439548  2.481715  0.000000     0.097838    0.000695    0.000000
      5.439548  8.317869  0.000000     0.097838   -0.000695    0.000000
      2.517244  5.399792  0.000000     0.100680    0.000000    0.000000
      0.060456  5.399792  8.301802     0.085677    0.000000    0.000453
      5.290259  5.399792  8.025280     0.123257    0.000000   -0.000128
      8.356030  0.000000  5.399792     0.097831    0.000000    0.000000
      5.290259  8.025280  5.399792     0.123257   -0.000128    0.000000
      5.290259  2.774304  5.399792     0.123257    0.000128    0.000000
      2.517244  0.000000  5.399792     0.100680    0.000000    0.000000
      0.033122  0.000000  2.914836     0.108134    0.000000   -0.000019
      5.439548  0.000000  2.481715     0.097838    0.000000    0.000695

 ELASTIC MODULI CONTR FROM IONIC RELAXATION (kBar)
 Direction    XX          YY          ZZ          XY          YZ          ZX
 XX        -405.4177    -77.1480    -77.1480     -0.0000     -0.0000      0.0000
 YY         -77.1480   -450.7627    -75.3305     -0.0000      0.0000      0.0000
 ZZ         -77.1480    -75.3305   -450.7627     -0.0000      0.0000      0.0000
 XY          -0.0000     -0.0000     -0.0000    -64.2431      0.0000      0.0000
 YZ          -0.0000      0.0000     -0.0000     -0.0000    -54.0297     -0.0000
 ZX           0.0000      0.0000      0.0000      0.0000     -0.0000    -64.2432

  LATTYP: Found a simple cubic cell.
 ALAT       =    10.7995840000

  Lattice vectors:

 A1 = (  10.7995840000,   0.0000000000,   0.0000000000)
 A2 = (   0.0000000000,  10.7995840000,   0.0000000000)
 A3 = (   0.0000000000,   0.0000000000,  10.7995840000)

Analysis of symmetry for initial positions (statically):
 Subroutine PRICEL returns:
 Original cell was already a primitive cell.

[...]

The static configuration has the point symmetry C_4v.

Analysis of symmetry for dynamics (positions and initial velocities):
 Subroutine PRICEL returns:
 Original cell was already a primitive cell.

[...]

The dynamic configuration has the point symmetry C_4v.

Analysis of structural, dynamic, and magnetic symmetry:
 Subroutine PRICEL returns:
 Original cell was already a primitive cell.

 Routine SETGRP: Setting up the symmetry group for a
 simple cubic supercell.

 Subroutine GETGRP returns: Found  8 space group operations
 (whereof  8 operations were pure point group operations)
 out of a pool of 48 trial point group operations.

The magnetic configuration has the point symmetry C_4v.

 Subroutine INISYM returns: Found  8 space group operations
 (whereof  8 operations are pure point group operations),
 and found     1 'primitive' translations

 KPOINTS: K-Mesh Generated with KP-Resolved Value

Automatic generation of k-mesh.
Space group operators:
 irot       det(A)        alpha          n_x          n_y          n_z        tau_x        tau_y        tau_z
    1     1.000000     0.000000     1.000000     0.000000     0.000000     0.000000     0.000000     0.000000
    2    -1.000000   180.000000     0.000000     0.707107     0.707107     0.000000     0.000000     0.000000
    3    -1.000000   180.000000     0.000000     0.000000     1.000000     0.000000     0.000000     0.000000
    4     1.000000    90.000000    -1.000000     0.000000     0.000000     0.000000     0.000000     0.000000
    5     1.000000   180.000000     1.000000     0.000000     0.000000     0.000000     0.000000     0.000000
    6     1.000000    90.000000     1.000000     0.000000     0.000000     0.000000     0.000000     0.000000
    7    -1.000000   180.000000     0.000000     1.000000     0.000000     0.000000     0.000000     0.000000
    8    -1.000000   180.000000     0.000000    -0.707107     0.707107     0.000000     0.000000     0.000000

 Subroutine IBZKPT returns following result:

 Found      1 irreducible k-points:

 Following reciprocal coordinates:
            Coordinates               Weight
  0.000000  0.000000  0.000000      1.000000

 Following cartesian coordinates:
            Coordinates               Weight
  0.000000  0.000000  0.000000      1.000000

 writing wavefunctions

 total charge

[...]

 magnetization (x)

# of ion       s       p       d       tot
    1        0.000  -0.000   0.000  -0.000
    2       -0.000  -0.000  -0.000  -0.000
    3       -0.000  -0.000   0.000  -0.000
    4       -0.000  -0.000  -0.000  -0.000
    5       -0.000  -0.000   0.000  -0.000
    6       -0.000  -0.000  -0.000  -0.000
    7        0.000  -0.000  -0.000   0.000
    8        0.000   0.000  -0.000   0.000
    9       -0.000   0.000  -0.000  -0.000
   10       -0.000   0.000   0.000   0.000
   11        0.000   0.000   0.000   0.000
   12        0.000  -0.000   0.000   0.000
   13       -0.000   0.000   0.000   0.000
   14        0.000   0.000   0.000   0.000
   15       -0.000   0.000   0.000   0.000
   16        0.000   0.000   0.000   0.000
   17        0.000   0.000   0.000   0.000
   18       -0.000   0.000   0.000   0.000
   19        0.000   0.000   0.000   0.000
   20        0.000   0.000   0.000   0.000
   21        0.000   0.000   0.000   0.000
   22        0.000   0.000   0.000   0.000
   23       -0.000   0.000   0.000   0.000
   24        0.000   0.000   0.000   0.000
   25       -0.000   0.000   0.000   0.000
   26       -0.000   0.000   0.000  -0.000
   27        0.000   0.000   0.000   0.000
   28       -0.000  -0.000   0.000  -0.000
   29        0.000  -0.000   0.000  -0.000
   30        0.000   0.000   0.000   0.000
   31       -0.000   0.000   0.000   0.000
   32       -0.000   0.000   0.000   0.000
   33        0.000   0.000   0.000   0.000
   34       -0.000   0.000   0.000   0.000
   35        0.000  -0.000   0.000  -0.000
tot         -0.000   0.000   0.000  -0.000